# DGP1 instance in AMPL .dat format
# graph.dat

param n := 20 ;

param : E : c I :=
  1 2  1044.000 1
  1 20  757.000 1
  2 3  7921.000 1
  3 4  5011.000 1
  4 5  2160.000 1
  5 6  1867.000 1
  6 7  1253.000 1
  7 8  1163.000 1
  8 9  677.000 1
  9 10  2486.000 1
  10 11  1247.000 1
  11 12  8235.000 1
  12 13  1182.000 1
  13 14  1040.000 1
  14 15  2786.000 1
  15 16  56.000 1
  16 17  2414.000 1
  17 18  271.000 1
  18 19  937.000 1
  19 20  9127.000 1
;
